SECTION Graph 
Nodes 693
Edges 1370
E 1 624 60
E 1 632 24
E 2 3 14
E 2 633 24
E 3 4 1
E 3 11 25
E 4 12 25
E 5 6 1
E 5 239 18
E 6 7 14
E 6 240 18
E 7 8 1
E 7 245 18
E 8 242 7
E 8 246 18
E 9 10 1
E 9 598 60
E 9 612 49
E 9 632 1
E 10 11 14
E 10 613 49
E 10 633 1
E 11 12 1
E 11 626 49
E 12 628 49
E 13 14 18
E 13 520 131
E 13 631 34
E 14 554 131
E 15 16 1
E 15 291 17
E 15 294 7
E 16 17 14
E 16 292 17
E 17 18 1
E 17 295 17
E 18 296 17
E 19 20 1
E 19 283 19
E 19 286 7
E 19 291 4
E 20 21 14
E 20 284 19
E 20 292 4
E 21 22 1
E 21 287 19
E 21 295 4
E 22 288 19
E 22 296 4
E 23 24 1
E 23 279 7
E 23 283 4
E 24 25 14
E 24 284 4
E 25 26 1
E 25 287 4
E 26 288 4
E 27 28 1
E 27 297 1
E 28 29 14
E 28 298 1
E 29 30 1
E 29 299 1
E 30 300 1
E 31 32 1
E 31 289 6
E 31 297 20
E 32 33 14
E 32 290 6
E 32 298 20
E 33 34 1
E 33 293 6
E 33 299 20
E 34 294 6
E 34 300 20
E 35 36 1
E 35 280 7
E 35 281 4
E 35 289 17
E 36 37 14
E 36 282 4
E 36 290 17
E 37 38 1
E 37 285 4
E 37 293 17
E 38 286 4
E 38 291 7
E 38 294 17
E 39 40 1
E 39 270 31
E 39 276 4
E 39 281 19
E 40 41 14
E 40 277 4
E 40 282 19
E 41 42 1
E 41 278 4
E 41 285 19
E 42 279 4
E 42 283 7
E 42 286 19
E 43 44 1
E 43 271 7
E 43 276 19
E 44 45 14
E 44 277 19
E 45 46 1
E 45 278 19
E 46 279 19
E 47 48 1
E 48 49 14
E 49 50 1
E 50 280 43
E 50 297 7
E 51 52 1
E 51 263 3
E 52 53 14
E 52 264 3
E 53 54 1
E 53 267 3
E 54 269 3
E 55 56 1
E 55 59 21
E 55 70 10
E 56 57 14
E 56 60 21
E 57 58 1
E 57 61 21
E 57 268 3
E 58 62 21
E 58 270 3
E 58 272 7
E 59 60 1
E 60 61 14
E 61 62 1
E 62 263 7
E 63 64 1
E 63 427 7
E 63 434 2
E 63 447 23
E 64 65 14
E 64 436 2
E 64 449 23
E 65 66 1
E 65 441 2
E 65 453 23
E 66 442 2
E 66 455 23
E 67 68 1
E 67 258 30
E 68 69 14
E 69 70 1
E 70 268 22
E 71 72 1
E 71 618 7
E 71 625 1
E 72 73 14
E 72 627 1
E 73 74 1
E 73 629 1
E 74 630 1
E 75 76 1
E 75 594 7
E 75 607 1
E 75 625 20
E 76 77 14
E 76 609 1
E 76 627 20
E 77 78 1
E 77 619 1
E 77 629 20
E 78 621 1
E 78 630 20
E 79 80 1
E 79 553 14
E 79 562 7
E 79 580 3
E 80 81 14
E 80 555 14
E 80 583 3
E 81 82 1
E 81 574 14
E 81 595 3
E 82 576 14
E 82 597 3
E 83 84 1
E 83 114 7
E 83 448 1
E 83 465 24
E 84 85 14
E 84 450 1
E 84 466 24
E 85 86 1
E 85 454 1
E 85 475 24
E 86 456 1
E 86 476 24
E 86 601 131
E 87 88 1
E 87 419 17
E 87 426 7
E 87 439 4
E 88 89 14
E 88 420 17
E 88 440 4
E 89 90 1
E 89 433 17
E 89 445 4
E 90 435 17
E 90 446 4
E 90 447 7
E 91 92 1
E 91 401 7
E 91 410 2
E 91 419 4
E 92 93 14
E 92 413 2
E 92 420 4
E 93 94 1
E 93 424 2
E 93 433 4
E 94 427 2
E 94 435 4
E 95 96 1
E 95 610 17
E 95 615 7
E 96 97 14
E 96 611 17
E 97 98 1
E 97 622 17
E 98 623 17
E 99 100 1
E 99 584 17
E 99 591 7
E 99 604 1
E 100 101 14
E 100 585 17
E 100 606 1
E 101 102 1
E 101 600 17
E 101 616 1
E 102 603 17
E 102 618 1
E 102 625 7
E 103 104 1
E 103 550 17
E 103 563 7
E 103 575 1
E 104 105 14
E 104 551 17
E 104 579 1
E 105 106 1
E 105 571 17
E 105 592 1
E 106 573 17
E 106 594 1
E 106 607 7
E 107 108 1
E 107 531 7
E 107 538 3
E 107 550 4
E 108 109 14
E 108 540 3
E 108 551 4
E 109 110 1
E 109 560 3
E 109 571 4
E 110 562 3
E 110 573 4
E 110 580 7
E 111 112 1
E 111 430 7
E 111 437 1
E 111 451 24
E 112 113 14
E 112 438 1
E 112 452 24
E 113 114 1
E 113 443 1
E 113 457 24
E 114 444 1
E 114 458 24
E 115 116 1
E 115 404 7
E 115 417 1
E 115 437 20
E 116 117 14
E 116 418 1
E 116 438 20
E 117 118 1
E 117 431 1
E 117 443 20
E 118 432 1
E 118 439 7
E 118 444 20
E 119 120 1
E 119 384 7
E 119 393 1
E 119 409 17
E 120 121 14
E 120 394 1
E 120 412 17
E 121 122 1
E 121 405 1
E 121 423 17
E 122 406 1
E 122 419 7
E 122 426 17
E 123 124 1
E 123 357 7
E 123 358 7
E 123 382 13
E 124 125 14
E 124 360 7
E 124 385 13
E 125 126 1
E 125 372 7
E 125 396 13
E 126 374 7
E 126 398 13
E 127 128 1
E 127 309 42
E 127 326 7
E 127 327 6
E 128 129 14
E 128 310 42
E 128 329 6
E 129 130 1
E 129 342 6
E 130 343 6
E 131 132 1
E 131 254 30
E 131 259 3
E 131 309 256
E 132 133 14
E 132 260 3
E 132 310 256
E 133 134 1
E 133 261 3
E 134 262 3
E 135 136 1
E 135 605 10
E 136 137 14
E 136 608 10
E 137 138 1
E 137 617 10
E 138 620 10
E 139 140 1
E 139 467 34
E 139 507 17
E 140 141 14
E 140 468 34
E 140 510 17
E 141 142 1
E 141 481 34
E 141 529 17
E 142 482 34
E 142 514 7
E 142 531 17
E 143 144 1
E 143 147 21
E 143 467 34
E 144 145 14
E 144 148 21
E 144 468 34
E 145 146 1
E 145 149 21
E 145 481 34
E 146 150 21
E 146 461 7
E 146 482 34
E 147 148 1
E 147 414 24
E 148 149 14
E 148 416 24
E 149 150 1
E 149 428 24
E 150 430 24
E 150 451 7
E 151 152 1
E 151 155 28
E 151 322 22
E 151 338 6
E 152 153 14
E 152 156 28
E 152 340 6
E 153 154 1
E 153 157 28
E 153 352 6
E 154 158 28
E 154 355 6
E 154 358 7
E 155 156 1
E 155 316 7
E 155 317 6
E 156 157 14
E 156 318 6
E 157 158 1
E 157 324 6
E 158 326 6
E 158 327 7
E 159 160 1
E 159 565 4
E 160 161 14
E 160 568 4
E 161 162 1
E 161 587 4
E 162 589 4
E 162 605 7
E 163 164 1
E 163 530 7
E 163 533 4
E 163 564 16
E 164 165 14
E 164 536 4
E 164 566 16
E 165 166 1
E 165 557 4
E 165 586 16
E 166 559 4
E 166 578 7
E 166 588 16
E 167 168 1
E 167 496 7
E 167 502 4
E 167 532 16
E 168 169 14
E 168 504 4
E 168 534 16
E 169 170 1
E 169 522 4
E 169 556 16
E 170 526 4
E 170 548 7
E 170 558 16
E 171 172 1
E 171 500 16
E 172 173 14
E 172 503 16
E 173 174 1
E 173 521 16
E 174 511 7
E 174 523 16
E 175 176 1
E 175 379 3
E 176 177 14
E 176 383 3
E 177 178 1
E 177 395 3
E 178 397 3
E 178 411 7
E 179 180 1
E 179 347 7
E 179 353 3
E 179 362 1
E 180 181 14
E 180 356 3
E 180 363 1
E 181 182 1
E 181 370 3
E 181 376 1
E 182 371 3
E 182 377 1
E 182 388 7
E 183 184 1
E 183 330 7
E 183 331 7
E 183 336 1
E 184 185 14
E 184 332 7
E 184 337 1
E 185 186 1
E 185 344 7
E 185 348 1
E 186 345 7
E 186 350 1
E 186 364 7
E 187 188 1
E 187 320 7
E 187 321 6
E 187 331 14
E 188 189 14
E 188 322 6
E 188 332 14
E 189 190 1
E 189 315 34
E 189 344 14
E 190 316 34
E 190 333 1
E 190 338 7
E 191 192 1
E 191 242 18
E 191 246 7
E 191 251 3
E 192 193 14
E 192 244 18
E 192 252 3
E 193 194 1
E 193 248 18
E 193 253 3
E 194 250 18
E 194 254 3
E 194 259 30
E 195 196 1
E 195 199 21
E 195 241 2
E 196 197 14
E 196 200 21
E 196 243 2
E 197 198 1
E 197 201 21
E 197 247 2
E 198 202 21
E 198 249 2
E 199 200 1
E 200 201 14
E 201 202 1
E 203 204 1
E 203 506 16
E 204 205 14
E 204 509 16
E 205 206 1
E 205 528 16
E 206 530 16
E 206 564 7
E 207 208 1
E 207 489 16
E 207 506 5
E 208 209 14
E 208 490 16
E 208 509 5
E 209 210 1
E 209 495 16
E 209 528 5
E 210 496 16
E 210 530 5
E 210 532 7
E 211 212 1
E 211 489 5
E 212 213 14
E 212 490 5
E 213 214 1
E 213 495 5
E 214 496 5
E 214 500 7
E 215 216 1
E 215 334 18
E 216 217 14
E 216 335 18
E 217 218 1
E 217 346 18
E 218 347 18
E 218 379 7
E 219 220 1
E 219 323 18
E 219 334 3
E 220 221 14
E 220 325 18
E 220 335 3
E 221 222 1
E 221 328 18
E 221 346 3
E 222 330 18
E 222 347 3
E 222 353 7
E 223 224 1
E 223 313 14
E 223 323 7
E 224 225 14
E 224 314 14
E 224 325 7
E 225 226 1
E 225 319 14
E 225 328 7
E 226 320 14
E 226 330 7
E 226 331 7
E 227 228 1
E 227 231 21
E 227 313 61
E 228 229 14
E 228 232 21
E 228 314 61
E 229 230 1
E 229 233 21
E 229 319 61
E 230 234 21
E 230 311 34
E 230 317 51
E 230 320 61
E 231 232 1
E 231 235 21
E 232 233 14
E 232 236 21
E 233 234 1
E 233 237 21
E 234 238 21
E 234 303 7
E 235 236 1
E 235 239 238
E 236 237 14
E 236 240 238
E 237 238 1
E 237 245 238
E 238 246 238
E 238 251 242
E 238 301 22
E 239 240 1
E 240 245 14
E 241 242 1
E 241 243 1
E 242 244 1
E 243 244 1
E 243 247 14
E 244 248 14
E 245 246 1
E 247 248 1
E 247 249 1
E 248 250 1
E 249 250 1
E 249 255 30
E 251 252 1
E 251 303 256
E 252 253 14
E 252 304 256
E 253 254 1
E 253 301 235
E 254 302 235
E 255 256 1
E 255 259 19
E 256 257 14
E 256 260 19
E 257 258 1
E 257 261 19
E 258 262 19
E 259 260 1
E 260 261 14
E 261 262 1
E 263 264 1
E 263 265 2
E 264 266 2
E 264 267 14
E 265 266 1
E 265 272 19
E 266 271 15
E 266 273 19
E 267 269 1
E 267 274 21
E 268 270 1
E 269 271 2
E 271 275 19
E 272 273 1
E 273 274 14
E 274 275 1
E 275 276 7
E 275 280 27
E 276 277 1
E 277 278 14
E 278 279 1
E 281 282 1
E 282 285 14
E 283 284 1
E 284 287 14
E 285 286 1
E 287 288 1
E 289 290 1
E 290 293 14
E 291 292 1
E 292 295 14
E 293 294 1
E 295 296 1
E 297 298 1
E 298 299 14
E 299 300 1
E 301 302 1
E 301 305 21
E 302 306 21
E 303 304 1
E 303 311 48
E 304 305 14
E 304 312 48
E 305 306 1
E 305 315 48
E 306 307 22
E 306 316 48
E 306 317 49
E 307 308 1
E 307 324 42
E 308 309 7
E 308 326 42
E 309 310 1
E 311 312 1
E 311 321 28
E 312 315 14
E 312 322 28
E 313 314 1
E 314 319 14
E 315 316 1
E 317 318 1
E 318 324 14
E 319 320 1
E 321 322 1
E 323 325 1
E 324 326 1
E 325 328 14
E 327 329 1
E 327 358 28
E 328 330 1
E 329 342 14
E 329 360 28
E 331 332 1
E 332 344 14
E 333 339 7
E 333 345 13
E 334 335 1
E 335 346 14
E 336 337 1
E 336 353 17
E 337 348 14
E 337 356 17
E 338 339 1
E 338 340 1
E 339 341 1
E 339 349 13
E 340 341 1
E 340 352 14
E 341 351 13
E 341 354 14
E 342 343 1
E 342 372 28
E 343 374 28
E 344 345 1
E 345 349 7
E 346 347 1
E 348 350 1
E 348 370 17
E 349 351 1
E 349 359 4
E 350 365 7
E 350 371 17
E 351 361 4
E 351 368 14
E 352 354 1
E 352 355 1
E 353 356 1
E 354 357 1
E 354 368 13
E 355 357 1
E 356 370 14
E 357 369 13
E 358 360 1
E 359 361 1
E 359 364 3
E 360 372 14
E 361 366 3
E 361 373 14
E 362 363 1
E 362 379 17
E 363 376 14
E 363 383 17
E 364 365 1
E 364 366 1
E 365 367 1
E 365 388 20
E 366 367 1
E 366 378 14
E 367 380 14
E 367 386 17
E 368 369 1
E 368 373 4
E 369 375 4
E 369 382 7
E 370 371 1
E 371 386 8
E 372 374 1
E 373 375 1
E 373 378 3
E 375 381 3
E 375 387 7
E 376 377 1
E 376 395 17
E 377 390 7
E 377 397 17
E 378 380 1
E 378 381 1
E 379 383 1
E 380 384 1
E 380 400 20
E 381 384 1
E 381 393 7
E 382 385 1
E 382 387 4
E 383 395 14
E 384 403 20
E 385 389 4
E 385 396 14
E 386 391 3
E 386 409 22
E 387 389 1
E 387 393 3
E 388 390 1
E 388 391 1
E 389 394 3
E 389 399 14
E 390 392 1
E 390 411 20
E 391 392 1
E 391 400 14
E 392 402 14
E 392 415 20
E 393 394 1
E 394 405 14
E 395 397 1
E 396 398 1
E 396 399 4
E 398 401 4
E 398 407 7
E 399 401 1
E 399 405 3
E 400 402 1
E 400 403 1
E 401 406 3
E 402 404 1
E 402 425 20
E 403 404 1
E 403 417 7
E 404 429 20
E 405 406 1
E 407 408 1
E 407 410 2
E 408 413 2
E 408 421 14
E 409 412 1
E 409 417 3
E 410 413 1
E 411 414 1
E 411 415 1
E 412 418 3
E 412 423 14
E 413 424 14
E 414 416 1
E 415 416 1
E 415 425 14
E 416 428 14
E 417 418 1
E 418 431 14
E 419 420 1
E 420 433 14
E 421 422 1
E 421 424 2
E 422 427 2
E 422 434 7
E 423 426 1
E 423 431 3
E 424 427 1
E 425 428 1
E 425 429 1
E 426 432 3
E 428 430 1
E 429 430 1
E 429 437 7
E 431 432 1
E 433 435 1
E 434 436 1
E 436 441 14
E 437 438 1
E 438 443 14
E 439 440 1
E 439 448 20
E 440 445 14
E 440 450 20
E 441 442 1
E 442 459 30
E 443 444 1
E 444 448 7
E 445 446 1
E 445 454 20
E 446 456 20
E 447 449 1
E 448 450 1
E 449 453 14
E 450 454 14
E 451 452 1
E 451 461 21
E 452 457 14
E 452 463 21
E 453 455 1
E 454 456 1
E 455 474 24
E 456 462 7
E 457 458 1
E 457 471 21
E 458 465 7
E 458 473 21
E 459 460 1
E 460 469 14
E 461 463 1
E 461 483 34
E 462 464 1
E 463 471 14
E 463 484 34
E 464 472 14
E 465 466 1
E 465 479 21
E 466 475 14
E 466 480 21
E 467 468 1
E 468 481 14
E 469 470 1
E 470 477 7
E 471 473 1
E 471 491 34
E 472 474 1
E 473 479 7
E 473 492 34
E 474 505 45
E 475 476 1
E 475 487 21
E 476 488 21
E 476 624 131
E 477 478 1
E 478 485 14
E 479 480 1
E 479 497 34
E 480 487 14
E 480 498 34
E 481 482 1
E 482 483 7
E 483 484 1
E 483 493 18
E 484 491 14
E 484 494 18
E 485 486 1
E 486 499 22
E 487 488 1
E 487 519 34
E 488 520 34
E 488 631 131
E 489 490 1
E 490 495 14
E 491 492 1
E 491 513 18
E 492 497 7
E 492 515 18
E 493 494 1
E 493 514 16
E 494 513 14
E 494 516 16
E 495 496 1
E 497 498 1
E 497 524 18
E 498 519 14
E 498 527 18
E 499 501 1
E 500 502 1
E 500 503 1
E 501 525 16
E 502 504 1
E 503 504 1
E 503 521 14
E 504 522 14
E 505 508 1
E 506 509 1
E 507 510 1
E 507 511 4
E 508 517 7
E 509 528 14
E 510 512 4
E 510 529 14
E 511 512 1
E 511 539 17
E 512 535 14
E 512 543 17
E 513 515 1
E 513 541 16
E 514 516 1
E 514 538 14
E 515 524 7
E 515 544 16
E 516 540 14
E 516 541 14
E 517 518 1
E 518 545 14
E 519 520 1
E 519 552 18
E 520 554 18
E 521 522 1
E 521 523 1
E 522 526 1
E 523 526 1
E 524 527 1
E 524 553 16
E 525 598 49
E 525 612 60
E 526 539 7
E 527 552 14
E 527 555 16
E 528 530 1
E 529 531 1
E 529 535 4
E 531 537 4
E 532 533 1
E 532 534 1
E 533 536 1
E 534 536 1
E 534 556 14
E 535 537 1
E 535 561 17
E 536 557 14
E 537 550 7
E 537 563 17
E 538 540 1
E 539 542 1
E 539 543 1
E 540 560 14
E 541 544 1
E 541 560 14
E 542 546 1
E 542 548 3
E 543 546 1
E 543 561 14
E 544 553 7
E 544 562 14
E 545 547 1
E 546 549 3
E 546 575 22
E 547 577 22
E 548 549 1
E 548 570 17
E 549 567 14
E 549 572 17
E 550 551 1
E 551 571 14
E 552 554 1
E 552 574 16
E 553 555 1
E 554 576 16
E 555 574 14
E 556 557 1
E 556 558 1
E 557 559 1
E 558 559 1
E 559 570 7
E 560 562 1
E 561 563 1
E 561 567 4
E 563 569 4
E 564 565 1
E 564 566 1
E 565 568 1
E 566 568 1
E 566 586 14
E 567 569 1
E 567 590 17
E 568 587 14
E 569 584 7
E 569 591 17
E 570 572 1
E 570 578 4
E 571 573 1
E 572 582 4
E 572 590 14
E 574 576 1
E 575 579 1
E 575 584 3
E 577 581 1
E 578 582 1
E 578 599 17
E 579 585 3
E 579 592 14
E 580 583 1
E 580 607 21
E 581 598 16
E 582 593 14
E 582 602 17
E 583 595 14
E 583 609 21
E 584 585 1
E 585 600 14
E 586 587 1
E 586 588 1
E 587 589 1
E 588 589 1
E 589 599 7
E 590 591 1
E 590 593 4
E 591 596 4
E 592 594 1
E 592 600 3
E 593 596 1
E 593 614 17
E 594 603 3
E 595 597 1
E 595 619 21
E 596 610 7
E 596 615 17
E 597 621 21
E 598 601 1
E 599 602 1
E 599 605 4
E 600 603 1
E 601 624 24
E 601 632 60
E 602 608 4
E 602 614 14
E 604 606 1
E 604 610 3
E 605 608 1
E 606 611 3
E 606 616 14
E 607 609 1
E 608 617 14
E 609 619 14
E 610 611 1
E 611 622 14
E 612 613 1
E 613 626 14
E 614 615 1
E 614 617 4
E 615 620 4
E 616 618 1
E 616 622 3
E 617 620 1
E 618 623 3
E 619 621 1
E 622 623 1
E 624 631 21
E 625 627 1
E 626 628 1
E 627 629 14
E 629 630 1
E 632 633 1
E 1 634 100000
E 2 634 100000
E 3 634 100000
E 4 634 100000
E 5 635 100000
E 6 635 100000
E 7 635 100000
E 8 635 100000
E 9 636 100000
E 10 636 100000
E 11 636 100000
E 12 636 100000
E 13 637 100000
E 14 637 100000
E 15 638 100000
E 16 638 100000
E 17 638 100000
E 18 638 100000
E 19 639 100000
E 20 639 100000
E 21 639 100000
E 22 639 100000
E 23 640 100000
E 24 640 100000
E 25 640 100000
E 26 640 100000
E 27 641 100000
E 28 641 100000
E 29 641 100000
E 30 641 100000
E 31 642 100000
E 32 642 100000
E 33 642 100000
E 34 642 100000
E 35 643 100000
E 36 643 100000
E 37 643 100000
E 38 643 100000
E 39 644 100000
E 40 644 100000
E 41 644 100000
E 42 644 100000
E 43 645 100000
E 44 645 100000
E 45 645 100000
E 46 645 100000
E 47 646 100000
E 48 646 100000
E 49 646 100000
E 50 646 100000
E 51 647 100000
E 52 647 100000
E 53 647 100000
E 54 647 100000
E 55 648 100000
E 56 648 100000
E 57 648 100000
E 58 648 100000
E 59 649 100000
E 60 649 100000
E 61 649 100000
E 62 649 100000
E 63 650 100000
E 64 650 100000
E 65 650 100000
E 66 650 100000
E 67 651 100000
E 68 651 100000
E 69 651 100000
E 70 651 100000
E 71 652 100000
E 72 652 100000
E 73 652 100000
E 74 652 100000
E 75 653 100000
E 76 653 100000
E 77 653 100000
E 78 653 100000
E 79 654 100000
E 80 654 100000
E 81 654 100000
E 82 654 100000
E 83 655 100000
E 84 655 100000
E 85 655 100000
E 86 655 100000
E 87 656 100000
E 88 656 100000
E 89 656 100000
E 90 656 100000
E 91 657 100000
E 92 657 100000
E 93 657 100000
E 94 657 100000
E 95 658 100000
E 96 658 100000
E 97 658 100000
E 98 658 100000
E 99 659 100000
E 100 659 100000
E 101 659 100000
E 102 659 100000
E 103 660 100000
E 104 660 100000
E 105 660 100000
E 106 660 100000
E 107 661 100000
E 108 661 100000
E 109 661 100000
E 110 661 100000
E 111 662 100000
E 112 662 100000
E 113 662 100000
E 114 662 100000
E 115 663 100000
E 116 663 100000
E 117 663 100000
E 118 663 100000
E 119 664 100000
E 120 664 100000
E 121 664 100000
E 122 664 100000
E 123 665 100000
E 124 665 100000
E 125 665 100000
E 126 665 100000
E 127 666 100000
E 128 666 100000
E 129 666 100000
E 130 666 100000
E 131 667 100000
E 132 667 100000
E 133 667 100000
E 134 667 100000
E 135 668 100000
E 136 668 100000
E 137 668 100000
E 138 668 100000
E 139 669 100000
E 140 669 100000
E 141 669 100000
E 142 669 100000
E 143 670 100000
E 144 670 100000
E 145 670 100000
E 146 670 100000
E 147 671 100000
E 148 671 100000
E 149 671 100000
E 150 671 100000
E 151 672 100000
E 152 672 100000
E 153 672 100000
E 154 672 100000
E 155 673 100000
E 156 673 100000
E 157 673 100000
E 158 673 100000
E 159 674 100000
E 160 674 100000
E 161 674 100000
E 162 674 100000
E 163 675 100000
E 164 675 100000
E 165 675 100000
E 166 675 100000
E 167 676 100000
E 168 676 100000
E 169 676 100000
E 170 676 100000
E 171 677 100000
E 172 677 100000
E 173 677 100000
E 174 677 100000
E 175 678 100000
E 176 678 100000
E 177 678 100000
E 178 678 100000
E 179 679 100000
E 180 679 100000
E 181 679 100000
E 182 679 100000
E 183 680 100000
E 184 680 100000
E 185 680 100000
E 186 680 100000
E 187 681 100000
E 188 681 100000
E 189 681 100000
E 190 681 100000
E 191 682 100000
E 192 682 100000
E 193 682 100000
E 194 682 100000
E 195 683 100000
E 196 683 100000
E 197 683 100000
E 198 683 100000
E 199 684 100000
E 200 684 100000
E 201 684 100000
E 202 684 100000
E 203 685 100000
E 204 685 100000
E 205 685 100000
E 206 685 100000
E 207 686 100000
E 208 686 100000
E 209 686 100000
E 210 686 100000
E 211 687 100000
E 212 687 100000
E 213 687 100000
E 214 687 100000
E 215 688 100000
E 216 688 100000
E 217 688 100000
E 218 688 100000
E 219 689 100000
E 220 689 100000
E 221 689 100000
E 222 689 100000
E 223 690 100000
E 224 690 100000
E 225 690 100000
E 226 690 100000
E 227 691 100000
E 228 691 100000
E 229 691 100000
E 230 691 100000
E 231 692 100000
E 232 692 100000
E 233 692 100000
E 234 692 100000
E 235 693 100000
E 236 693 100000
E 237 693 100000
E 238 693 100000
END 

SECTION Terminals 
Terminals 60
TP 634 664
TP 635 665
TP 636 666
TP 637 667
TP 638 668
TP 639 669
TP 640 670
TP 641 671
TP 642 672
TP 643 673
TP 644 674
TP 645 675
TP 646 676
TP 647 677
TP 648 678
TP 649 679
TP 650 680
TP 651 681
TP 652 682
TP 653 683
TP 654 684
TP 655 685
TP 656 686
TP 657 687
TP 658 688
TP 659 689
TP 660 690
TP 661 691
TP 662 692
TP 663 693
END 
